; Query 773 -- Type: InitialValues, Instructions: 3076168
(set-option :produce-models true)
(set-logic QF_AUFBV )
(declare-fun addrbase () (Array (_ BitVec 32) (_ BitVec 8) ) )
(declare-fun addrofs () (Array (_ BitVec 32) (_ BitVec 8) ) )
(declare-fun cy_we () (Array (_ BitVec 32) (_ BitVec 8) ) )
(assert (and  (=  (_ bv5 32) (bvand  (bvlshr  (bvor  (concat  (select  addrbase (_ bv3 32) ) (concat  (select  addrbase (_ bv2 32) ) (concat  (select  addrbase (_ bv1 32) ) (select  addrbase (_ bv0 32) ) ) ) ) ((_ zero_extend 16)  (concat  (select  addrofs (_ bv1 32) ) (select  addrofs (_ bv0 32) ) ) ) ) (_ bv11 32) ) (_ bv31 32) ) ) (=  false (=  (_ bv0 8) (select  cy_we (_ bv0 32) ) ) ) ) )
(check-sat)
(get-value ( (select cy_we (_ bv0 32) ) ) )
(get-value ( (select cy_we (_ bv1 32) ) ) )
(get-value ( (select cy_we (_ bv2 32) ) ) )
(get-value ( (select cy_we (_ bv3 32) ) ) )
(get-value ( (select addrbase (_ bv0 32) ) ) )
(get-value ( (select addrbase (_ bv1 32) ) ) )
(get-value ( (select addrbase (_ bv2 32) ) ) )
(get-value ( (select addrbase (_ bv3 32) ) ) )
(get-value ( (select addrofs (_ bv0 32) ) ) )
(get-value ( (select addrofs (_ bv1 32) ) ) )
(get-value ( (select addrofs (_ bv2 32) ) ) )
(get-value ( (select addrofs (_ bv3 32) ) ) )
(exit)
;   OK -- Elapsed: 2.222097e-02
;   Solvable: true
;     cy_we = [1,255,255,255]
;     addrbase = [0,40,0,0]
;     addrofs = [0,0,255,255]
